WARNING: for repeatability, setting FPU to use double precision
============================[ Problem Statistics ]=============================
|                                                                             |
|  Number of variables:            50                                         |
|  Number of clauses:             218                                         |
|  Parse time:                   0.00 s                                       |
|                                                                             |
============================[ Search Statistics ]==============================
| Conflicts |          ORIGINAL         |          LEARNT          | Progress |
|           |    Vars  Clauses Literals |    Limit  Clauses Lit/Cl |          |
===============================================================================
===============================================================================
restarts              : 1
conflicts             : 83             (54749 /sec)
decisions             : 96             (0.00 % random) (63325 /sec)
propagations          : 1158           (763852 /sec)
conflict literals     : 351            (14.60 % deleted)
Memory used           : 20.00 MB
CPU time              : 0.001516 s

UNSATISFIABLE
